960124
108,87,145,11,186,102,157,120,40,179,76,105,127,140,23,65,189,98,104,91,99,52,215,174,53,17,55,201,218,221,148,1,81,229,212,220,138,10,153,163,193,45,213,133,47,224,110,46,29,43,222,219,67,8,155,210,4,144,143,209,116,21,88,115,160,183,165,95,90,25,100,106,195,178,33,204,74,77,214,129,80,26,154,111,132,168,39,54,150,27,49,61,101,191,36,93,34,107,86,228,35,19,182,6,62,71,0,31,15,136,63,137,9,200,113,85,194,192,118,205,217,41,97,159,121,112,50,225,176,198,68,2,59,14,7,207,188,184,162,126,177,22,158,30,42,206,117,70,161,139,156,82,134,73,38,66,48,146,190,151,197,199,64,28,69,125,72,208,135,123,180,172,187,130,147,181,60,131,79,78,94,166,122,84,56,83,142,196,18,16,12,175,96,119,164,226,13,109,124,57,173,75,58,51,24,114,203,171,167,92,211,44,103,5,202,37,223,32,128,152,216,20,3,227,141,169,89,149,170,185
